GLPSOL--GLPK LP/MIP Solver 5.0
Parameter(s) specified in the command line:
 --lp ../modeles/10_294.lp --log 10_294.log
Reading problem data from '../modeles/10_294.lp'...
2981 rows, 5900 columns, 20610 non-zeros
2940 integer variables, all of which are binary
8897 lines were read
GLPK Integer Optimizer 5.0
2981 rows, 5900 columns, 20610 non-zeros
2940 integer variables, all of which are binary
Preprocessing...
2900 constraint coefficient(s) were reduced
2981 rows, 5890 columns, 20600 non-zeros
2940 integer variables, all of which are binary
Scaling...
 A: min|aij| =  1.851e-04  max|aij| =  4.000e+00  ratio =  2.161e+04
GM: min|aij| =  8.248e-02  max|aij| =  1.212e+01  ratio =  1.470e+02
EQ: min|aij| =  6.803e-03  max|aij| =  1.000e+00  ratio =  1.470e+02
2N: min|aij| =  5.923e-03  max|aij| =  1.754e+00  ratio =  2.961e+02
Constructing initial basis...
Size of triangular part is 2981
Solving LP relaxation...
GLPK Simplex Optimizer 5.0
2981 rows, 5890 columns, 20600 non-zeros
      0: obj =   2.000000000e+01 inf =   4.950e+01 (21)
    189: obj =   2.987411196e-01 inf =   0.000e+00 (0)
*   593: obj =  -3.161745549e+00 inf =   2.071e-14 (0)
OPTIMAL LP SOLUTION FOUND
Integer optimization begins...
Long-step dual simplex will be used
+   593: mip =     not found yet >=              -inf        (1; 0)
+   822: >>>>>  -3.161745549e+00 >=  -3.161745549e+00 < 0.1% (227; 0)
+   822: mip =  -3.161745549e+00 >=     tree is empty   0.0% (0; 453)
INTEGER OPTIMAL SOLUTION FOUND
Time used:   1.2 secs
Memory used: 8.5 Mb (8937612 bytes)
